50
120
97
96
96
94
94
91
88
87
85
81
81
77
74
74
74
71
69
68
68
66
65
63
60
59
57
57
46
46
45
45
44
43
41
37
35
35
32
30
28
27
25
23
23
19
18
16
14
14
10
8
